nApps = 224
nRes = 9
nActs = 454
nNetworks = 6

assignmentToResources = [1,1,2,1,3,3,2,1,3,1,3,3,2,2,1,3,3,1,1,2,1,1,3,2,3,3,3,3,3,2,3,1,1,3,2,2,2,2,2,2,1,2,2,1,1,2,2,1,3,2,3,1,3,3,3,3,1,3,3,1,1,3,3,2,1,3,1,2,1,2,3,3,1,3,3,1,3,1,1,1,2,1,1,1,2,2,1,1,3,3,1,1,2,2,1,3,2,2,3,3,4,4,4,4,4,4,4,5,5,5,4,4,4,4,6,6,6,5,5,5,4,4,6,6,4,4,4,6,6,6,6,6,5,5,5,4,4,6,4,4,4,4,4,5,6,6,6,5,5,6,6,6,6,6,6,6,6,6,6,6,6,6,6,6,5,6,4,4,6,6,5,5,5,5,5,5,5,5,5,5,5,5,4,5,5,5,5,4,4,5,4,6,6,4,4,6,6,6,6,6,6,4,4,4,6,6,4,4,4,4,4,6,6,6,6,5,4,4,4,4,6,6,6,5,4,4,5,5,6,6,6,6,6,6,4,4,5,5,5,4,4,4,4,4,5,5,5,4,6,6,6,6,6,6,6,4,8,5,9,5,9,6,7,6,8,4,9,5,9,5,7,6,7,4,8,4,9,6,7,6,7,4,9,6,7,4,9,6,7,5,7,6,7,5,7,5,9,4,8,9,9,9,8,8,9,8,9,7,7,9,9,9,8,7,7,8,9,9,9,9,8,8,7,9,8,8,8,7,8,8,8,7,7,9,9,9,8,8,8,8,8,8,7,8,7,7,9,9,7,7,8,7,8,7,8,8,7,7,7,7,7,7,7,9,7,9,8,8,7,7,7,9,9,7,9,9,7,7,7,7,9,9,9,7,7,7,8,9,7,8,8,7,9,8,8,7,7,7,7,8,9,9,9,7,7,9,9,8,9,8,8,8,8,7,7,8,8,9,9,8,8,7,9,8,9,9,7,7,8,8,7,7,7,9,9,9,7,7,8,9,9,8,9,7,7,9,8,8,7,8,7,8,7,8];

processingTimes = [120,136,168,72,152,104,144,112,56,120,64,56,56,152,56,64,120,72,144,152,128,72,136,128,128,152,160,160,112,112,168,64,112,128,88,112,112,72,168,120,56,128,128,144,88,56,80,120,104,96,64,136,88,136,136,128,88,136,112,120,88,128,112,168,168,112,168,64,112,128,88,64,160,136,160,112,128,152,48,88,112,104,136,160,104,136,104,88,136,136,168,168,56,48,144,48,168,152,96,120,3,3,5,5,3,5,3,13,500,500,4,4,4,4,3,3,4,8,3,3,3,3,7,4,8,8,3,4,3,7,4,8,8,6,3,8,4,5,4,3,4,4,7,4,500,500,3,23,500,4,500,8,500,4,4,4,3,3,500,13,4,500,3,3,3,500,4,3,3,200,8,8,3,500,3,500,500,4,500,4,3,500,5,23,500,4,3,5,4,4,5,500,5,5,3,500,4,500,4,500,3,4,500,4,500,4,500,8,3,9,5,8,3,8,4,4,4,4,3,3,5,3,8,4,4,4,3,3,500,4,4,3,4,4,4,5,4,500,500,500,4,8,4,500,3,5,500,4,3,3,4,500,3,8,8,4,4,4,4,5,5,3,3,4,4,3,3,13,13,3,3,4,4,4,4,4,4,3,3,4,4,3,3,4,4,3,3,4,4,500,500,500,500,500,500,3,3,3,3,3,3,5,5,3,5,3,13,500,500,4,4,4,4,3,3,4,8,3,3,3,3,7,4,8,8,3,4,3,7,4,8,8,6,3,8,4,5,4,3,4,4,7,4,500,500,3,23,500,4,500,8,500,4,4,4,3,3,500,13,4,500,3,3,3,500,4,3,3,200,8,8,3,500,3,500,500,4,500,4,3,500,5,23,500,4,3,5,4,4,5,500,5,5,3,500,4,500,4,500,3,4,500,4,500,4,500,8,3,9,5,8,3,8,4,4,4,4,3,3,5,3,8,4,4,4,3,3,500,4,4,3,4,4,4,5,4,500,500,500,4,8,4,500,3,5,500,4,3,3,4,500,3,8,8];

periods = [10000,100000,20000,10000,10000,100000,10000,100000,100000,2000,100000,1000,50000,1000,100000,10000,100000,20000,50000,100000,100000,1000,10000,10000,10000,10000,20000,20000,5000,20000,10000,20000,2000,2000,100000,20000,20000,100000,10000,100000,100000,10000,10000,100000,10000,50000,100000,100000,100000,2000,10000,5000,20000,10000,20000,100000,20000,10000,20000,100000,20000,20000,20000,10000,10000,10000,100000,100000,20000,2000,10000,100000,10000,10000,10000,5000,2000,10000,20000,5000,10000,100000,50000,10000,10000,10000,20000,10000,100000,100000,20000,10000,20000,10000,20000,20000,100000,10000,100000,100000,10000,10000,10000,10000,100000,100000,100000,20000,20000,20000,10000,10000,10000,10000,100000,100000,100000,10000,10000,10000,100000,100000,100000,100000,2000,2000,2000,100000,100000,1000,1000,1000,50000,1000,1000,100000,100000,100000,20000,20000,20000,20000,50000,100000,10000,10000,10000,10000,10000,10000,10000,10000,10000,10000,10000,10000,20000,20000,20000,20000,20000,5000,5000,5000,20000,10000,2000,2000,2000,2000,100000,100000,20000,20000,20000,20000,20000,20000,100000,100000,100000,100000,100000,10000,10000,10000,10000,100000,10000,50000,100000,10000,10000,5000,5000,20000,20000,10000,10000,20000,100000,20000,20000,20000,20000,20000,100000,20000,20000,20000,20000,20000,20000,20000,20000,10000,10000,10000,10000,10000,10000,10000,10000,100000,20000,20000,2000,2000,10000,10000,100000,100000,2000,2000,5000,5000,10000,10000,10000,100000,100000,50000,50000,50000,10000,10000,10000,20000,100000,100000,100000,100000,20000,100000,100000,100000,100000,100000,100000,100000,100000,100000,100000,20000,20000,20000,20000,20000,20000,20000,20000,20000,20000,10000,10000,100000,100000,100000,100000,100000,100000,100000,100000,20000,20000,20000,20000,20000,20000,100000,100000,10000,10000,10000,10000,10000,10000,10000,10000,10000,10000,10000,10000,100000,100000,100000,20000,20000,20000,10000,10000,10000,10000,100000,100000,100000,10000,10000,10000,100000,100000,100000,100000,2000,2000,2000,100000,100000,1000,1000,1000,50000,1000,1000,100000,100000,100000,20000,20000,20000,20000,50000,100000,10000,10000,10000,10000,10000,10000,10000,10000,10000,10000,10000,10000,20000,20000,20000,20000,20000,5000,5000,5000,20000,10000,2000,2000,2000,2000,100000,100000,20000,20000,20000,20000,20000,20000,100000,100000,100000,100000,100000,10000,10000,10000,10000,100000,10000,50000,100000,10000,10000,5000,5000,20000,20000,10000,10000,20000,100000,20000,20000,20000,20000,20000,100000,20000,20000,20000,20000,20000,20000,20000,20000,10000,10000,10000,10000,10000,10000,10000,10000,100000,20000,20000,2000,2000,10000,10000,100000,100000,2000,2000,5000,5000,10000,10000,10000,100000,100000,50000,50000,50000,10000,10000,10000,20000,100000,100000,100000,100000,20000,100000,100000];

assignmentToClusters = [1,2,3,4,5,2,6,7,2,8,9,10,11,12,13,14,9,15,16,17,9,18,19,20,21,22,23,3,24,3,25,26,27,28,29,30,31,32,25,33,9,34,35,17,36,37,17,9,9,38,39,40,41,42,43,9,44,45,15,46,47,15,3,4,48,49,2,2,3,50,20,9,51,52,53,54,55,20,56,57,58,59,60,61,62,63,3,25,9,9,64,65,66,67,15,68,2,69,9,2,70,71,72,73,74,75,76,77,78,79,80,81,82,83,84,85,86,87,88,89,90,91,92,93,94,95,96,97,98,99,100,101,102,103,104,105,106,107,108,109,110,111,112,113,114,115,116,117,118,119,120,121,122,123,124,125,126,127,128,129,130,131,132,133,134,135,136,137,138,139,140,141,142,143,144,145,146,147,148,149,150,151,152,153,154,155,156,157,158,159,160,161,162,163,164,165,166,167,168,169,170,171,172,173,174,175,176,177,178,179,180,181,182,183,184,185,186,187,188,189,190,191,192,193,194,195,196,197,198,199,200,201,202,203,204,205,206,207,208,209,210,211,212,213,214,215,216,217,218,219,220,221,222,223,224,2,2,2,2,2,2,2,2,3,3,3,3,3,3,3,3,3,3,4,4,9,9,9,9,9,9,9,9,15,15,15,15,15,15,17,17,20,20,20,20,25,25,25,25,70,71,72,73,74,75,76,77,78,79,80,81,82,83,84,85,86,87,88,89,90,91,92,93,94,95,96,97,98,99,100,101,102,103,104,105,106,107,108,109,110,111,112,113,114,115,116,117,118,119,120,121,122,123,124,125,126,127,128,129,130,131,132,133,134,135,136,137,138,139,140,141,142,143,144,145,146,147,148,149,150,151,152,153,154,155,156,157,158,159,160,161,162,163,164,165,166,167,168,169,170,171,172,173,174,175,176,177,178,179,180,181,182,183,184,185,186,187,188,189,190,191,192,193,194,195,196,197,198,199,200,201,202,203,204,205,206,207,208,209,210,211,212,213,214,215,216,217,218,219,220,221,222,223,224];

precedenceAdjList = [[],[],[264],[],[],[260],[],[],[5,258],[],[16],[],[],[],[],[],[88],[284],[],[46],[278,280],[],[],[],[],[],[],[268],[],[],[296],[],[],[],[],[],[],[],[298],[],[20],[],[],[290],[],[],[],[],[55,10],[],[],[],[],[],[],[276],[],[],[286],[],[],[],[266],[274],[],[],[262],[256],[],[],[],[48],[],[],[],[],[],[292,294],[],[],[],[],[],[],[],[],[270,272],[],[],[],[],[],[],[],[288],[],[],[],[282],[8],[],[],[],[],[],[],[],[],[],[],[],[],[],[],[],[],[],[],[],[],[],[],[],[],[],[],[],[],[],[],[],[],[],[],[],[],[],[],[],[],[],[],[],[],[],[],[],[],[],[],[],[],[],[],[],[],[],[],[],[],[],[],[],[],[],[],[],[],[],[],[],[],[],[],[],[],[],[],[],[],[],[],[],[],[],[],[],[],[],[],[],[],[],[],[],[],[],[],[],[],[],[],[],[],[],[],[],[],[],[],[],[],[],[],[],[],[],[],[],[],[],[],[],[],[],[],[],[],[],[],[],[],[],[],[],[],[],[],[],[],[],[],[],[],[],[],[],[],[],[],[],[],[],[],[],[1],[255],[67],[257],[96],[259],[8],[261],[62],[263],[68],[265],[2],[267],[29],[269],[27],[271],[3],[273],[47],[275],[89],[277],[71],[279],[40],[281],[58],[283],[94],[285],[61],[287],[19],[289],[70],[291],[23],[293],[38],[295],[87],[297],[100],[101],[102],[103],[104],[105],[106],[107],[108],[109],[110],[111],[112],[113],[114],[115],[116],[117],[118],[119],[120],[121],[122],[123],[124],[125],[126],[127],[128],[129],[130],[131],[132],[133],[134],[135],[136],[137],[138],[139],[140],[141],[142],[143],[144],[145],[146],[147],[148],[149],[150],[151],[152],[153],[154],[155],[156],[157],[158],[159],[160],[161],[162],[163],[164],[165],[166],[167],[168],[169],[170],[171],[172],[173],[174],[175],[176],[177],[178],[179],[180],[181],[182],[183],[184],[185],[186],[187],[188],[189],[190],[191],[192],[193],[194],[195],[196],[197],[198],[199],[200],[201],[202],[203],[204],[205],[206],[207],[208],[209],[210],[211],[212],[213],[214],[215],[216],[217],[218],[219],[220],[221],[222],[223],[224],[225],[226],[227],[228],[229],[230],[231],[232],[233],[234],[235],[236],[237],[238],[239],[240],[241],[242],[243],[244],[245],[246],[247],[248],[249],[250],[251],[252],[253],[254]];